unsat
(define-fun f ((x0 (BitVec 64)) (x1 (BitVec 64))) (BitVec 64) (bvadd x0 (bvudiv x0 #b0000000000000000000000000000000000000000000000000000000000001000)))
(define-fun f ((x0 (BitVec 64)) (x1 (BitVec 64))) (BitVec 64) (bvadd x0 (bvudiv x0 #b0000000000000000000000000000000000000000000000000000000000001000)))
int-arith45.sl running time : 0 m 2.480014050 s
times : 2.480014050
